units real
atom_style full

pair_style lj/cut 12
bond_style harmonic
angle_style harmonic

read_data gold-h2o.lammps

pair_modify mix arithmetic

group water type 1 2

velocity water create 298 12345 dist gaussian

#fix integrator water nvt temp 298 298 100
fix integrator water nve
timestep 0.1

thermo 10
run 10000

write_dump all xyz output.xyz
